NAME /Users/henri/Research/solvers/instances/idol-instances/robust/collection/cbp_Subramanyam_et_al_2020/CapBud_N25_17/models/uncertain_technology_matrix/
ROWS
 N  OBJ
 L  capacity
 L  c_4815
 L  c_4816
 L  c_4817
 L  c_4818
 L  c_4819
 L  c_4820
 L  c_4821
 L  c_4822
 L  c_4823
 L  c_4824
 L  c_4825
 L  c_4826
 L  c_4827
 L  c_4828
 L  c_4829
 L  c_4830
 L  c_4831
 L  c_4832
 L  c_4833
 L  c_4834
 L  c_4835
 L  c_4836
 L  c_4837
 L  c_4838
 L  c_4839
COLUMNS
    MARKER    'MARKER'                 'INTORG'
    x_0        OBJ        -6.20307
    x_0        c_4815     1
    x_0        capacity   1.24061
    x_1        OBJ        -5.85894
    x_1        c_4816     1
    x_1        capacity   1.17179
    x_2        OBJ        -5.54945
    x_2        c_4817     1
    x_2        capacity   1.10989
    x_3        OBJ        -3.77688
    x_3        c_4818     1
    x_3        capacity   0.755375
    x_4        OBJ        -0.337055
    x_4        c_4819     1
    x_4        capacity   0.067411
    x_5        OBJ        -4.61235
    x_5        c_4820     1
    x_5        capacity   0.922471
    x_6        OBJ        -4.67794
    x_6        c_4821     1
    x_6        capacity   0.935589
    x_7        OBJ        -1.41684
    x_7        c_4822     1
    x_7        capacity   0.283368
    x_8        OBJ        -6.72231
    x_8        c_4823     1
    x_8        capacity   1.34446
    x_9        OBJ        -3.97031
    x_9        c_4824     1
    x_9        capacity   0.794062
    x_10       OBJ        -8.07601
    x_10       c_4825     1
    x_10       capacity   1.6152
    x_11       OBJ        -8.62054
    x_11       c_4826     1
    x_11       capacity   1.72411
    x_12       OBJ        -2.91625
    x_12       c_4827     1
    x_12       capacity   0.583249
    x_13       OBJ        -2.0734
    x_13       c_4828     1
    x_13       capacity   0.414679
    x_14       OBJ        -7.45987
    x_14       c_4829     1
    x_14       capacity   1.49197
    x_15       OBJ        -9.28617
    x_15       c_4830     1
    x_15       capacity   1.85723
    x_16       OBJ        -3.96814
    x_16       c_4831     1
    x_16       capacity   0.793628
    x_17       OBJ        -1.86138
    x_17       c_4832     1
    x_17       capacity   0.372275
    x_18       OBJ        -2.79061
    x_18       c_4833     1
    x_18       capacity   0.558123
    x_19       OBJ        -3.27304
    x_19       c_4834     1
    x_19       capacity   0.654607
    x_20       OBJ        -1.84651
    x_20       c_4835     1
    x_20       capacity   0.369303
    x_21       OBJ        -4.3955
    x_21       c_4836     1
    x_21       capacity   0.879101
    x_22       OBJ        -1.68759
    x_22       c_4837     1
    x_22       capacity   0.337518
    x_23       OBJ        -7.25661
    x_23       c_4838     1
    x_23       capacity   1.45132
    x_24       OBJ        -1.53494
    x_24       c_4839     1
    x_24       capacity   0.306989
    y_0        OBJ        -4.96245
    y_0        c_4815     1
    y_0        capacity   1.24061
    y_1        OBJ        -4.68715
    y_1        c_4816     1
    y_1        capacity   1.17179
    y_2        OBJ        -4.43956
    y_2        c_4817     1
    y_2        capacity   1.10989
    y_3        OBJ        -3.0215
    y_3        c_4818     1
    y_3        capacity   0.755375
    y_4        OBJ        -0.269644
    y_4        c_4819     1
    y_4        capacity   0.067411
    y_5        OBJ        -3.68988
    y_5        c_4820     1
    y_5        capacity   0.922471
    y_6        OBJ        -3.74235
    y_6        c_4821     1
    y_6        capacity   0.935589
    y_7        OBJ        -1.13347
    y_7        c_4822     1
    y_7        capacity   0.283368
    y_8        OBJ        -5.37785
    y_8        c_4823     1
    y_8        capacity   1.34446
    y_9        OBJ        -3.17625
    y_9        c_4824     1
    y_9        capacity   0.794062
    y_10       OBJ        -6.46081
    y_10       c_4825     1
    y_10       capacity   1.6152
    y_11       OBJ        -6.89643
    y_11       c_4826     1
    y_11       capacity   1.72411
    y_12       OBJ        -2.333
    y_12       c_4827     1
    y_12       capacity   0.583249
    y_13       OBJ        -1.65872
    y_13       c_4828     1
    y_13       capacity   0.414679
    y_14       OBJ        -5.96789
    y_14       c_4829     1
    y_14       capacity   1.49197
    y_15       OBJ        -7.42894
    y_15       c_4830     1
    y_15       capacity   1.85723
    y_16       OBJ        -3.17451
    y_16       c_4831     1
    y_16       capacity   0.793628
    y_17       OBJ        -1.4891
    y_17       c_4832     1
    y_17       capacity   0.372275
    y_18       OBJ        -2.23249
    y_18       c_4833     1
    y_18       capacity   0.558123
    y_19       OBJ        -2.61843
    y_19       c_4834     1
    y_19       capacity   0.654607
    y_20       OBJ        -1.47721
    y_20       c_4835     1
    y_20       capacity   0.369303
    y_21       OBJ        -3.5164
    y_21       c_4836     1
    y_21       capacity   0.879101
    y_22       OBJ        -1.35007
    y_22       c_4837     1
    y_22       capacity   0.337518
    y_23       OBJ        -5.80529
    y_23       c_4838     1
    y_23       capacity   1.45132
    y_24       OBJ        -1.22795
    y_24       c_4839     1
    y_24       capacity   0.306989
    MARKER    'MARKER'                 'INTEND'
RHS
    RHS       capacity   55.0859
    RHS       c_4815     1
    RHS       c_4816     1
    RHS       c_4817     1
    RHS       c_4818     1
    RHS       c_4819     1
    RHS       c_4820     1
    RHS       c_4821     1
    RHS       c_4822     1
    RHS       c_4823     1
    RHS       c_4824     1
    RHS       c_4825     1
    RHS       c_4826     1
    RHS       c_4827     1
    RHS       c_4828     1
    RHS       c_4829     1
    RHS       c_4830     1
    RHS       c_4831     1
    RHS       c_4832     1
    RHS       c_4833     1
    RHS       c_4834     1
    RHS       c_4835     1
    RHS       c_4836     1
    RHS       c_4837     1
    RHS       c_4838     1
    RHS       c_4839     1
BOUNDS
 LI BND       x_0        0
 UI BND       x_0        1
 LI BND       x_1        0
 UI BND       x_1        1
 LI BND       x_2        0
 UI BND       x_2        1
 LI BND       x_3        0
 UI BND       x_3        1
 LI BND       x_4        0
 UI BND       x_4        1
 LI BND       x_5        0
 UI BND       x_5        1
 LI BND       x_6        0
 UI BND       x_6        1
 LI BND       x_7        0
 UI BND       x_7        1
 LI BND       x_8        0
 UI BND       x_8        1
 LI BND       x_9        0
 UI BND       x_9        1
 LI BND       x_10       0
 UI BND       x_10       1
 LI BND       x_11       0
 UI BND       x_11       1
 LI BND       x_12       0
 UI BND       x_12       1
 LI BND       x_13       0
 UI BND       x_13       1
 LI BND       x_14       0
 UI BND       x_14       1
 LI BND       x_15       0
 UI BND       x_15       1
 LI BND       x_16       0
 UI BND       x_16       1
 LI BND       x_17       0
 UI BND       x_17       1
 LI BND       x_18       0
 UI BND       x_18       1
 LI BND       x_19       0
 UI BND       x_19       1
 LI BND       x_20       0
 UI BND       x_20       1
 LI BND       x_21       0
 UI BND       x_21       1
 LI BND       x_22       0
 UI BND       x_22       1
 LI BND       x_23       0
 UI BND       x_23       1
 LI BND       x_24       0
 UI BND       x_24       1
 LI BND       y_0        0
 UI BND       y_0        1
 LI BND       y_1        0
 UI BND       y_1        1
 LI BND       y_2        0
 UI BND       y_2        1
 LI BND       y_3        0
 UI BND       y_3        1
 LI BND       y_4        0
 UI BND       y_4        1
 LI BND       y_5        0
 UI BND       y_5        1
 LI BND       y_6        0
 UI BND       y_6        1
 LI BND       y_7        0
 UI BND       y_7        1
 LI BND       y_8        0
 UI BND       y_8        1
 LI BND       y_9        0
 UI BND       y_9        1
 LI BND       y_10       0
 UI BND       y_10       1
 LI BND       y_11       0
 UI BND       y_11       1
 LI BND       y_12       0
 UI BND       y_12       1
 LI BND       y_13       0
 UI BND       y_13       1
 LI BND       y_14       0
 UI BND       y_14       1
 LI BND       y_15       0
 UI BND       y_15       1
 LI BND       y_16       0
 UI BND       y_16       1
 LI BND       y_17       0
 UI BND       y_17       1
 LI BND       y_18       0
 UI BND       y_18       1
 LI BND       y_19       0
 UI BND       y_19       1
 LI BND       y_20       0
 UI BND       y_20       1
 LI BND       y_21       0
 UI BND       y_21       1
 LI BND       y_22       0
 UI BND       y_22       1
 LI BND       y_23       0
 UI BND       y_23       1
 LI BND       y_24       0
 UI BND       y_24       1
ENDATA
